c 
c U(n,d) graph
c graph gen seed     : 802
c number of vertices : 25
c max number of edges: 500
c Euclidean distance : 0.600000
c data structure     : dense
c
c           Graph Stats
c number of vertices  : 25
c nonisolated vertices: 25
c number of edges     : 170
c edge density        : 0.566667
c max degree          : 21
c avg degree          : 13.60
c min degree          : 8
p col 25 170
e 1 2
e 1 8
e 1 9
e 1 11
e 1 12
e 1 15
e 1 20
e 1 22
e 1 23
e 2 3
e 2 6
e 2 8
e 2 9
e 2 11
e 2 12
e 2 15
e 2 17
e 2 20
e 2 22
e 2 23
e 2 25
e 3 4
e 3 7
e 3 9
e 3 10
e 3 11
e 3 12
e 3 17
e 3 18
e 3 21
e 3 22
e 3 23
e 3 25
e 4 7
e 4 10
e 4 17
e 4 18
e 4 21
e 4 23
e 4 25
e 5 6
e 5 7
e 5 8
e 5 12
e 5 13
e 5 14
e 5 15
e 5 16
e 5 19
e 5 20
e 5 22
e 5 24
e 5 25
e 6 7
e 6 8
e 6 9
e 6 12
e 6 13
e 6 14
e 6 15
e 6 16
e 6 19
e 6 20
e 6 22
e 6 23
e 6 24
e 6 25
e 7 10
e 7 12
e 7 13
e 7 14
e 7 15
e 7 17
e 7 18
e 7 19
e 7 21
e 7 22
e 7 23
e 7 24
e 7 25
e 8 9
e 8 11
e 8 12
e 8 13
e 8 14
e 8 15
e 8 16
e 8 20
e 8 22
e 8 23
e 8 25
e 9 11
e 9 12
e 9 15
e 9 17
e 9 20
e 9 22
e 9 23
e 9 25
e 10 13
e 10 17
e 10 18
e 10 21
e 10 23
e 10 25
e 11 12
e 11 17
e 11 20
e 11 22
e 11 23
e 12 13
e 12 14
e 12 15
e 12 16
e 12 17
e 12 19
e 12 20
e 12 22
e 12 23
e 12 25
e 13 14
e 13 15
e 13 16
e 13 18
e 13 19
e 13 21
e 13 22
e 13 23
e 13 24
e 13 25
e 14 15
e 14 16
e 14 19
e 14 20
e 14 22
e 14 23
e 14 24
e 14 25
e 15 16
e 15 19
e 15 20
e 15 22
e 15 23
e 15 24
e 15 25
e 16 19
e 16 22
e 16 24
e 16 25
e 17 18
e 17 21
e 17 22
e 17 23
e 17 25
e 18 21
e 18 22
e 18 23
e 18 25
e 19 24
e 19 25
e 20 22
e 20 23
e 21 22
e 21 23
e 21 24
e 21 25
e 22 23
e 22 25
e 23 25
e 24 25
